Instance name:    bar-n100-4
Authors:          PDPTW Solver
Date:             2025-11-28
Reference:        LNS with SA/RTR
Solution
Route 1 : 5 18 68 55 22 14 64 72
Route 2 : 20 70 31 81 34 33 83 84
Route 3 : 47 97 9 59 43 35 85 93
Route 4 : 27 77 21 29 71 79 45 95
Route 5 : 50 100 49 44 94 15 99 65
Route 6 : 46 96 28 78 37 30 87 80
Route 7 : 19 17 67 69 32 82 24 74
Route 8 : 36 86 4 11 61 54
Route 9 : 6 56 10 8 13 60 58 63 12 62
Route 10 : 16 66 1 51 39 89 40 90
Route 11 : 38 88 3 53 7 48 98 57
Route 12 : 26 76 2 52 42 92 41 91
Route 13 : 25 23 75 73
